16 32
1 2 3
1 5 1
2 3 4
2 6 2
3 4 4
3 7 4
4 8 2
5 6 5
5 9 2
6 7 2
6 10 4
7 8 2
7 11 4
8 12 2
9 10 5
9 13 4
10 11 2
10 14 5
11 12 5
11 15 5
12 16 5
13 14 3
14 15 1
15 16 1
1 13 5
2 14 4
3 15 5
4 16 2
1 4 2
5 8 4
9 12 2
13 16 5
